b 2
b -4
b -9
b -13
b -16
b -19
b -20
b -22
b 23
b -28
b -29
b -37
b 38
b -46
b 47
b -48
b -56
b -57
b -58
b -67
b 68
b -77
b -78
b 3
b 12
b -24
b -25
b -33
b -35
b -41
b -43
b -50
b -53
b -54
b -60
b -63
b -64
b 72
b 74
b 0
s SATISFIABLE
